% Auto-generated by scripts/generate_dzn.py
% problem_type   = regex
% instance       = regex_51
% source_json    = instances_json/2_high_blowup/regex_51.json
% blowup         = 35.95652173913044
% representation = NFA

mode = 1;

var_count = 22;
n_constraints = 2;
Q = 13;
S = 2;
q0 = [1, 1];
F = [{13}, {10}];
weights = [1, 8, 7, 1, 2, 5, 7, 7, 5, 6, 3, 2, 6, 9, 5, 8, 9, 4, 10, 3, 4, 1];
d_dfa = array3d(1..2, 1..13, 1..2, [
  % k = 1
    0, 0,
    0, 0,
    0, 0,
    0, 0,
    0, 0,
    0, 0,
    0, 0,
    0, 0,
    0, 0,
    0, 0,
    0, 0,
    0, 0,
    0, 0,

  % k = 2
    0, 0,
    0, 0,
    0, 0,
    0, 0,
    0, 0,
    0, 0,
    0, 0,
    0, 0,
    0, 0,
    0, 0,
    0, 0,
    0, 0,
    0, 0
]);
d_nfa = array3d(1..2, 1..13, 1..2, [
  % k = 1
    {1}, {1, 2},
    {}, {3},
    {4}, {4},
    {5}, {5},
    {6}, {6},
    {7}, {7},
    {8}, {8},
    {9}, {9},
    {10}, {10},
    {11}, {11},
    {12}, {12},
    {13}, {13},
    {}, {},

  % k = 2
    {2}, {1},
    {3}, {2},
    {4}, {3},
    {5}, {4},
    {6}, {5},
    {7}, {6},
    {8}, {7},
    {9}, {8},
    {10}, {9},
    {}, {10},
    {}, {},
    {}, {},
    {}, {}
]);
